{"OBJ_VAL": 430, "status": "optimal", "Name": "scp49", "time": "N/A", "X": [0, 2, 3, 4, 5, 7, 11, 12, 15, 16, 17, 18, 20, 22, 24, 25, 26, 27, 30, 32, 35, 44, 45, 52, 55, 57, 58, 59, 60, 62, 63, 64, 65, 67, 69, 70, 72, 76, 77, 84, 85, 88, 93, 96, 103, 105, 107, 112, 113, 132, 133, 148, 158, 171, 182, 222, 400, 404], "Pi": [5.0, -0.0, -0.0, 6.0, 1.0, -0.0, 19.0, -0.0, 7.0, -0.0, 1.0, -0.0, 20.0, 1.0, 2.0, -0.0, 2.0, 5.0, 6.0, 1.0, 1.0, 3.0, 0.0, 4.0, -0.0, -0.0, 5.0, 4.0, -0.0, -0.0, 1.0, -0.0, -0.0, -0.0, -0.0, -0.0, 2.0, 2.0, 0.0, 5.0, -0.0, -0.0, -0.0, -0.0, 3.0, -0.0, -0.0, -0.0, -0.0, -0.0, -0.0, 3.0, 1.0, -0.0, -0.0, 5.0, 1.0, 1.0, -0.0, 1.0, 3.0, 5.0, -0.0, 4.0, -0.0, -0.0, 1.0, -0.0, 2.0, -0.0, -0.0, 2.0, -0.0, 2.0, 8.0, 10.0, -0.0, -0.0, -0.0, -0.0, -0.0, 9.0, -0.0, 12.0, 7.0, 15.0, -0.0, 2.0, -0.0, -0.0, -0.0, 4.0, -0.0, -0.0, 3.0, -0.0, -0.0, -0.0, 3.0, 3.0, -0.0, -0.0, 2.0, 5.0, 3.0, 22.0, -0.0, -0.0, 1.0, 0.0, -0.0, -0.0, 2.0, -0.0, 14.0, -0.0, 7.0, 4.0, -0.0, -0.0, -0.0, -0.0, -0.0, 13.0, 3.0, -0.0, -0.0, 4.0, -0.0, -0.0, 3.0, -0.0, 2.0, 4.0, -0.0, -0.0, -0.0, 1.0, -0.0, 2.0, -0.0, -0.0, 1.0, -0.0, 7.0, -0.0, 7.0, -0.0, 1.0, -0.0, -0.0, -0.0, -0.0, -0.0, 6.0, -0.0, -0.0, -0.0, 7.0, 13.0, -0.0, -0.0, 1.0, 9.0, -0.0, -0.0, 7.0, 0.0, 1.0, 5.0, -0.0, -0.0, 2.0, -0.0, -0.0, -0.0, 2.0, -0.0, -0.0, 17.0, -0.0, -0.0, 3.0, 12.0, -0.0, 7.0, -0.0, -0.0, -0.0, 1.0, -0.0, -0.0, 7.0, -0.0, -0.0, 7.0, -0.0, 1.0, 3.0, 0.0], "Dj": [0.0, 0.0, 0.0, 0.0, 0.0, -1.0, 0.0, 0.0, 1.0, 0.0, 1.0, 0.0, 0.0, 2.0, 2.0, 0.0, 0.0, 0.0, 0.0, 0.0, 0.0, 0.0, 0.0, 2.0, 0.0, 0.0, 0.0, 0.0, 0.0, 0.0, 0.0, 0.0, 0.0, 0.0, 3.0, 0.0, 2.0, 3.0, 3.0, 3.0, 0.0, 0.0, 0.0, 2.0, 0.0, 0.0, 1.0, 0.0, 4.0, 0.0, 0.0, 0.0, 0.0, 5.0, 3.0, 0.0, 4.0, 0.0, -1.0, 0.0, 0.0, 4.0, 0.0, 0.0, 0.0, 0.0, 3.0, 0.0, 7.0, 0.0, 0.0, 2.0, 0.0, 3.0, 6.0, 0.0, 0.0, 0.0, 5.0, 1.0, 7.0, 4.0, 7.0, 4.0, 0.0, 0.0, 0.0, 6.0, 0.0, 5.0, 0.0, 4.0, 8.0, 0.0, 2.0, 6.0, 0.0, 8.0, 6.0, 3.0, 3.0, 0.0, 6.0, 0.0, 4.0, 0.0, 0.0, 0.0, 6.0, 0.0, 5.0, 10.0, 0.0, 0.0, 0.0, 0.0, 4.0, 11.0, 10.0, 11.0, 11.0, 11.0, 10.0, 0.0, 5.0, 7.0, 7.0, 11.0, 11.0, 11.0, 6.0, 11.0, 0.0, 0.0, 10.0, 12.0, 12.0, 8.0, 5.0, 8.0, 0.0, 0.0, 3.0, 12.0, 12.0, 13.0, 13.0, 0.0, 0.0, 14.0, 14.0, 0.0, 11.0, 14.0, 5.0, 10.0, 8.0, 14.0, 0.0, 0.0, 14.0, 11.0, 13.0, 11.0, 13.0, 12.0, 6.0, 6.0, 15.0, 7.0, 8.0, 0.0, 7.0, 0.0, 14.0, 10.0, 2.0, 9.0, 14.0, 13.0, 9.0, 8.0, 0.0, 13.0, 0.0, 1.0, 12.0, 17.0, 17.0, 8.0, 18.0, 6.0, 0.0, 15.0, 15.0, 9.0, 15.0, 4.0, 12.0, 16.0, 18.0, 12.0, 17.0, 13.0, 16.0, 0.0, 12.0, 4.0, 19.0, 18.0, 20.0, 16.0, 0.0, 13.0, 17.0, 19.0, 17.0, 21.0, 20.0, 15.0, 12.0, 19.0, 0.0, 4.0, 2.0, 20.0, 19.0, 9.0, 14.0, 14.0, 21.0, 13.0, 19.0, 23.0, 23.0, 10.0, 21.0, 21.0, 23.0, 22.0, 18.0, 22.0, 18.0, 22.0, 12.0, 8.0, 17.0, 11.0, 4.0, 0.0, 19.0, 20.0, 25.0, 20.0, 3.0, 23.0, 22.0, 20.0, 2.0, 25.0, 19.0, 13.0, 24.0, 7.0, 18.0, 24.0, 26.0, 25.0, 0.0, 14.0, 21.0, 10.0, 26.0, 27.0, 0.0, 27.0, 26.0, 17.0, 11.0, 26.0, 19.0, 27.0, 20.0, 28.0, 24.0, 22.0, 22.0, 25.0, 18.0, 18.0, 27.0, 6.0, 21.0, 22.0, 9.0, 21.0, 26.0, 15.0, 26.0, 29.0, 8.0, 8.0, 30.0, 30.0, 27.0, 17.0, 28.0, 24.0, 23.0, 24.0, 28.0, 26.0, 27.0, 30.0, 29.0, 29.0, 26.0, 24.0, 31.0, 16.0, 26.0, 24.0, 14.0, 27.0, 24.0, 22.0, 21.0, 30.0, 14.0, 30.0, 25.0, 32.0, 29.0, 24.0, 8.0, 33.0, 31.0, 25.0, 6.0, 19.0, 4.0, 0.0, 32.0, 30.0, 33.0, 33.0, 15.0, 10.0, 26.0, 28.0, 17.0, 18.0, 5.0, 30.0, 34.0, 26.0, 35.0, 9.0, 35.0, 25.0, 32.0, 15.0, 10.0, 36.0, 32.0, 33.0, 21.0, 30.0, 33.0, 30.0, 25.0, 12.0, 29.0, 36.0, 7.0, 34.0, 13.0, 34.0, 35.0, 35.0, 32.0, 32.0, 37.0, 20.0, 2.0, 17.0, 37.0, 38.0, 23.0, 22.0, 33.0, 29.0, 38.0, 36.0, 32.0, 36.0, 31.0, 29.0, 33.0, 31.0, 0.0, 39.0, 32.0, 23.0, 0.0, 31.0, 9.0, 13.0, 35.0, 37.0, 22.0, 34.0, 32.0, 35.0, 37.0, 35.0, 34.0, 24.0, 40.0, 21.0, 35.0, 34.0, 28.0, 34.0, 41.0, 29.0, 36.0, 41.0, 30.0, 34.0, 31.0, 26.0, 26.0, 32.0, 38.0, 28.0, 32.0, 30.0, 29.0, 41.0, 32.0, 19.0, 42.0, 36.0, 43.0, 38.0, 40.0, 40.0, 32.0, 31.0, 42.0, 37.0, 37.0, 39.0, 44.0, 41.0, 36.0, 41.0, 44.0, 44.0, 36.0, 45.0, 21.0, 42.0, 39.0, 41.0, 41.0, 44.0, 41.0, 29.0, 24.0, 29.0, 46.0, 24.0, 40.0, 23.0, 32.0, 33.0, 17.0, 47.0, 36.0, 41.0, 44.0, 45.0, 47.0, 45.0, 40.0, 46.0, 47.0, 46.0, 33.0, 28.0, 18.0, 37.0, 42.0, 45.0, 39.0, 34.0, 42.0, 33.0, 47.0, 48.0, 1.0, 45.0, 44.0, 37.0, 42.0, 32.0, 45.0, 40.0, 49.0, 38.0, 39.0, 32.0, 38.0, 48.0, 36.0, 47.0, 49.0, 48.0, 36.0, 40.0, 37.0, 42.0, 41.0, 50.0, 45.0, 48.0, 44.0, 48.0, 51.0, 31.0, 46.0, 49.0, 41.0, 48.0, 38.0, 9.0, 15.0, 46.0, 52.0, 50.0, 52.0, 53.0, 26.0, 54.0, 50.0, 46.0, 54.0, 43.0, 48.0, 44.0, 46.0, 48.0, 47.0, 38.0, 49.0, 45.0, 35.0, 53.0, 46.0, 55.0, 51.0, 53.0, 50.0, 49.0, 33.0, 51.0, 46.0, 53.0, 51.0, 55.0, 37.0, 39.0, 57.0, 40.0, 52.0, 52.0, 45.0, 51.0, 51.0, 56.0, 58.0, 57.0, 58.0, 49.0, 56.0, 57.0, 43.0, 54.0, 48.0, 48.0, 53.0, 56.0, 59.0, 37.0, 58.0, 59.0, 59.0, 59.0, 48.0, 53.0, 56.0, 51.0, 59.0, 33.0, 48.0, 51.0, 53.0, 41.0, 54.0, 37.0, 56.0, 44.0, 40.0, 35.0, 56.0, 49.0, 47.0, 53.0, 49.0, 58.0, 59.0, 33.0, 48.0, 44.0, 33.0, 57.0, 54.0, 32.0, 52.0, 57.0, 62.0, 56.0, 60.0, 62.0, 62.0, 50.0, 38.0, 63.0, 49.0, 43.0, 62.0, 63.0, 63.0, 57.0, 40.0, 63.0, 57.0, 64.0, 64.0, 51.0, 64.0, 64.0, 64.0, 59.0, 63.0, 65.0, 57.0, 48.0, 60.0, 49.0, 64.0, 60.0, 45.0, 59.0, 50.0, 56.0, 65.0, 65.0, 50.0, 57.0, 62.0, 60.0, 66.0, 60.0, 64.0, 51.0, 55.0, 64.0, 63.0, 56.0, 54.0, 66.0, 60.0, 39.0, 67.0, 65.0, 62.0, 66.0, 65.0, 30.0, 54.0, 60.0, 38.0, 67.0, 63.0, 29.0, 67.0, 58.0, 52.0, 67.0, 67.0, 69.0, 66.0, 57.0, 69.0, 58.0, 49.0, 61.0, 65.0, 63.0, 69.0, 57.0, 53.0, 67.0, 66.0, 55.0, 65.0, 66.0, 66.0, 67.0, 70.0, 70.0, 65.0, 51.0, 64.0, 67.0, 69.0, 70.0, 71.0, 69.0, 70.0, 47.0, 70.0, 66.0, 68.0, 64.0, 72.0, 59.0, 60.0, 72.0, 72.0, 66.0, 65.0, 56.0, 68.0, 64.0, 69.0, 58.0, 65.0, 73.0, 66.0, 69.0, 63.0, 73.0, 57.0, 66.0, 62.0, 73.0, 71.0, 72.0, 74.0, 72.0, 67.0, 52.0, 75.0, 73.0, 70.0, 75.0, 74.0, 64.0, 67.0, 55.0, 59.0, 67.0, 73.0, 64.0, 76.0, 64.0, 76.0, 61.0, 64.0, 70.0, 73.0, 64.0, 68.0, 66.0, 58.0, 56.0, 68.0, 69.0, 77.0, 75.0, 72.0, 70.0, 56.0, 76.0, 74.0, 77.0, 78.0, 71.0, 58.0, 76.0, 50.0, 71.0, 69.0, 78.0, 67.0, 67.0, 78.0, 79.0, 62.0, 75.0, 68.0, 76.0, 76.0, 63.0, 77.0, 67.0, 74.0, 75.0, 80.0, 61.0, 74.0, 74.0, 73.0, 79.0, 63.0, 71.0, 79.0, 81.0, 81.0, 75.0, 78.0, 71.0, 80.0, 81.0, 69.0, 58.0, 75.0, 78.0, 63.0, 73.0, 82.0, 65.0, 82.0, 72.0, 79.0, 78.0, 77.0, 83.0, 82.0, 74.0, 70.0, 68.0, 75.0, 63.0, 76.0, 82.0, 84.0, 79.0, 84.0, 81.0, 75.0, 78.0, 81.0, 75.0, 80.0, 85.0, 68.0, 78.0, 84.0, 85.0, 80.0, 56.0, 81.0, 74.0, 86.0, 63.0, 84.0, 81.0, 77.0, 70.0, 77.0, 81.0, 85.0, 83.0, 71.0, 63.0, 82.0, 81.0, 80.0, 54.0, 65.0, 88.0, 85.0, 85.0, 86.0, 82.0, 85.0, 88.0, 88.0, 88.0, 81.0, 88.0, 84.0, 75.0, 72.0, 59.0, 58.0, 79.0, 82.0, 84.0, 89.0, 69.0, 64.0, 70.0, 79.0, 75.0, 90.0, 84.0, 89.0, 89.0, 80.0, 90.0, 84.0, 87.0, 91.0, 90.0, 77.0, 85.0, 84.0, 74.0, 77.0, 85.0, 91.0, 85.0, 93.0, 82.0, 85.0, 89.0, 91.0, 90.0, 85.0, 75.0, 79.0, 94.0, 94.0, 94.0, 94.0, 89.0, 94.0, 60.0, 83.0, 93.0, 88.0, 95.0, 81.0, 78.0, 86.0, 92.0, 87.0, 88.0, 87.0, 95.0, 96.0, 96.0, 92.0, 87.0, 90.0, 92.0, 96.0, 90.0, 94.0, 89.0, 98.0, 87.0, 90.0, 91.0, 96.0, 95.0, 93.0, 98.0, 99.0, 77.0, 96.0, 96.0, 90.0, 88.0, 96.0, 99.0, 99.0, 92.0, 85.0, 100.0, 98.0, 99.0, 86.0, 90.0], "slack": [0.0, -1.0, 0.0, 0.0, 0.0, 0.0, 0.0, -1.0, 0.0, -3.0, 0.0, -1.0, 0.0, 0.0, 0.0, -1.0, 0.0, 0.0, 0.0, 0.0, 0.0, 0.0, 0.0, 0.0, 0.0, -3.0, 0.0, 0.0, 0.0, 0.0, 0.0, -1.0, 0.0, 0.0, -1.0, -2.0, 0.0, 0.0, 0.0, 0.0, -1.0, -1.0, -1.0, -2.0, 0.0, -1.0, -1.0, 0.0, -1.0, -1.0, 0.0, 0.0, 0.0, -2.0, 0.0, 0.0, 0.0, 0.0, 0.0, 0.0, 0.0, 0.0, -3.0, 0.0, 0.0, 0.0, 0.0, 0.0, 0.0, -1.0, 0.0, 0.0, -1.0, 0.0, 0.0, 0.0, -2.0, -2.0, 0.0, 0.0, 0.0, 0.0, -1.0, 0.0, 0.0, 0.0, -1.0, 0.0, 0.0, -2.0, -1.0, 0.0, 0.0, -1.0, 0.0, -1.0, -2.0, 0.0, 0.0, 0.0, -1.0, 0.0, 0.0, 0.0, 0.0, 0.0, 0.0, -1.0, 0.0, 0.0, 0.0, -3.0, 0.0, 0.0, 0.0, -1.0, 0.0, 0.0, 0.0, -1.0, -2.0, -1.0, 0.0, 0.0, 0.0, -1.0, 0.0, 0.0, 0.0, -1.0, 0.0, -1.0, 0.0, 0.0, 0.0, -1.0, 0.0, 0.0, 0.0, 0.0, -1.0, 0.0, 0.0, 0.0, 0.0, 0.0, 0.0, 0.0, 0.0, -1.0, 0.0, 0.0, -1.0, -1.0, 0.0, -1.0, 0.0, -1.0, 0.0, 0.0, -1.0, 0.0, 0.0, 0.0, 0.0, -2.0, 0.0, 0.0, 0.0, 0.0, 0.0, -2.0, 0.0, -1.0, -3.0, -3.0, 0.0, 0.0, -1.0, 0.0, 0.0, 0.0, 0.0, 0.0, 0.0, 0.0, 0.0, -1.0, -1.0, 0.0, -1.0, -1.0, 0.0, 0.0, 0.0, 0.0, -1.0, 0.0, 0.0, 0.0], "density": 0.0196, "feasible": true, "X_len": 58, "mode": "AAD", "factor": 0, "obj_val": 430.0, "x": [1.0, 0.0, 1.0, 1.0, 1.0, 1.0, 0.0, 1.0, 0.0, 0.0, 0.0, 1.0, 1.0, 0.0, 0.0, 1.0, 1.0, 1.0, 1.0, 0.0, 1.0, 0.0, 1.0, 0.0, 1.0, 1.0, 1.0, 1.0, 0.0, 0.0, 1.0, 0.0, 1.0, 0.0, 0.0, 1.0, 0.0, 0.0, 0.0, 0.0, 0.0, 0.0, 0.0, 0.0, 1.0, 1.0, 0.0, 0.0, 0.0, 0.0, 0.0, 0.0, 1.0, 0.0, 0.0, 1.0, 0.0, 1.0, 1.0, 1.0, 1.0, 0.0, 1.0, 1.0, 1.0, 1.0, 0.0, 1.0, 0.0, 1.0, 1.0, 0.0, 1.0, 0.0, 0.0, 0.0, 1.0, 1.0, 0.0, 0.0, 0.0, 0.0, 0.0, 0.0, 1.0, 1.0, 0.0, 0.0, 1.0, 0.0, 0.0, 0.0, 0.0, 1.0, 0.0, 0.0, 1.0, 0.0, 0.0, 0.0, 0.0, 0.0, 0.0, 1.0, 0.0, 1.0, 0.0, 1.0, 0.0, 0.0, 0.0, 0.0, 1.0, 1.0, 0.0, 0.0, 0.0, 0.0, 0.0, 0.0, 0.0, 0.0, 0.0, 0.0, 0.0, 0.0, 0.0, 0.0, 0.0, 0.0, 0.0, 0.0, 1.0, 1.0, 0.0, 0.0, 0.0, 0.0, 0.0, 0.0, 0.0, 0.0, 0.0, 0.0, 0.0, 0.0, 0.0, 0.0, 1.0, 0.0, 0.0, 0.0, 0.0, 0.0, 0.0, 0.0, 0.0, 0.0, 1.0, 0.0, 0.0, 0.0, 0.0, 0.0, 0.0, 0.0, 0.0, 0.0, 0.0, 0.0, 0.0, 1.0, 0.0, 0.0, 0.0, 0.0, 0.0, 0.0, 0.0, 0.0, 0.0, 0.0, 1.0, 0.0, 0.0, 0.0, 0.0, 0.0, 0.0, 0.0, 0.0, 0.0, 0.0, 0.0, 0.0, 0.0, 0.0, 0.0, 0.0, 0.0, 0.0, 0.0, 0.0, 0.0, 0.0, 0.0, 0.0, 0.0, 0.0, 0.0, 0.0, 0.0, 0.0, 0.0, 0.0, 0.0, 0.0, 0.0, 0.0, 0.0, 0.0, 0.0, 1.0, 0.0, 0.0, 0.0, 0.0, 0.0, 0.0, 0.0, 0.0, 0.0, 0.0, 0.0, 0.0, 0.0, 0.0, 0.0, 0.0, 0.0, 0.0, 0.0, 0.0, 0.0, 0.0, 0.0, 0.0, 0.0, 0.0, 0.0, 0.0, 0.0, 0.0, 0.0, 0.0, 0.0, 0.0, 0.0, 0.0, 0.0, 0.0, 0.0, 0.0, 0.0, 0.0, 0.0, 0.0, 0.0, 0.0, 0.0, 0.0, 0.0, 0.0, 0.0, 0.0, 0.0, 0.0, 0.0, 0.0, 0.0, 0.0, 0.0, 0.0, 0.0, 0.0, 0.0, 0.0, 0.0, 0.0, 0.0, 0.0, 0.0, 0.0, 0.0, 0.0, 0.0, 0.0, 0.0, 0.0, 0.0, 0.0, 0.0, 0.0, 0.0, 0.0, 0.0, 0.0, 0.0, 0.0, 0.0, 0.0, 0.0, 0.0, 0.0, 0.0, 0.0, 0.0, 0.0, 0.0, 0.0, 0.0, 0.0, 0.0, 0.0, 0.0, 0.0, 0.0, 0.0, 0.0, 0.0, 0.0, 0.0, 0.0, 0.0, 0.0, 0.0, 0.0, 0.0, 0.0, 0.0, 0.0, 0.0, 0.0, 0.0, 0.0, 0.0, 0.0, 0.0, 0.0, 0.0, 0.0, 0.0, 0.0, 0.0, 0.0, 0.0, 0.0, 0.0, 0.0, 0.0, 0.0, 0.0, 0.0, 0.0, 0.0, 0.0, 0.0, 0.0, 0.0, 0.0, 0.0, 0.0, 0.0, 0.0, 0.0, 0.0, 0.0, 0.0, 0.0, 0.0, 0.0, 0.0, 0.0, 0.0, 0.0, 0.0, 0.0, 0.0, 0.0, 0.0, 0.0, 0.0, 0.0, 0.0, 0.0, 0.0, 0.0, 0.0, 0.0, 0.0, 1.0, 0.0, 0.0, 0.0, 1.0, 0.0, 0.0, 0.0, 0.0, 0.0, 0.0, 0.0, 0.0, 0.0, 0.0, 0.0, 0.0, 0.0, 0.0, 0.0, 0.0, 0.0, 0.0, 0.0, 0.0, 0.0, 0.0, 0.0, 0.0, 0.0, 0.0, 0.0, 0.0, 0.0, 0.0, 0.0, 0.0, 0.0, 0.0, 0.0, 0.0, 0.0, 0.0, 0.0, 0.0, 0.0, 0.0, 0.0, 0.0, 0.0, 0.0, 0.0, 0.0, 0.0, 0.0, 0.0, 0.0, 0.0, 0.0, 0.0, 0.0, 0.0, 0.0, 0.0, 0.0, 0.0, 0.0, 0.0, 0.0, 0.0, 0.0, 0.0, 0.0, 0.0, 0.0, 0.0, 0.0, 0.0, 0.0, 0.0, 0.0, 0.0, 0.0, 0.0, 0.0, 0.0, 0.0, 0.0, 0.0, 0.0, 0.0, 0.0, 0.0, 0.0, 0.0, 0.0, 0.0, 0.0, 0.0, 0.0, 0.0, 0.0, 0.0, 0.0, 0.0, 0.0, 0.0, 0.0, 0.0, 0.0, 0.0, 0.0, 0.0, 0.0, 0.0, 0.0, 0.0, 0.0, 0.0, 0.0, 0.0, 0.0, 0.0, 0.0, 0.0, 0.0, 0.0, 0.0, 0.0, 0.0, 0.0, 0.0, 0.0, 0.0, 0.0, 0.0, 0.0, 0.0, 0.0, 0.0, 0.0, 0.0, 0.0, 0.0, 0.0, 0.0, 0.0, 0.0, 0.0, 0.0, 0.0, 0.0, 0.0, 0.0, 0.0, 0.0, 0.0, 0.0, 0.0, 0.0, 0.0, 0.0, 0.0, 0.0, 0.0, 0.0, 0.0, 0.0, 0.0, 0.0, 0.0, 0.0, 0.0, 0.0, 0.0, 0.0, 0.0, 0.0, 0.0, 0.0, 0.0, 0.0, 0.0, 0.0, 0.0, 0.0, 0.0, 0.0, 0.0, 0.0, 0.0, 0.0, 0.0, 0.0, 0.0, 0.0, 0.0, 0.0, 0.0, 0.0, 0.0, 0.0, 0.0, 0.0, 0.0, 0.0, 0.0, 0.0, 0.0, 0.0, 0.0, 0.0, 0.0, 0.0, 0.0, 0.0, 0.0, 0.0, 0.0, 0.0, 0.0, 0.0, 0.0, 0.0, 0.0, 0.0, 0.0, 0.0, 0.0, 0.0, 0.0, 0.0, 0.0, 0.0, 0.0, 0.0, 0.0, 0.0, 0.0, 0.0, 0.0, 0.0, 0.0, 0.0, 0.0, 0.0, 0.0, 0.0, 0.0, 0.0, 0.0, 0.0, 0.0, 0.0, 0.0, 0.0, 0.0, 0.0, 0.0, 0.0, 0.0, 0.0, 0.0, 0.0, 0.0, 0.0, 0.0, 0.0, 0.0, 0.0, 0.0, 0.0, 0.0, 0.0, 0.0, 0.0, 0.0, 0.0, 0.0, 0.0, 0.0, 0.0, 0.0, 0.0, 0.0, 0.0, 0.0, 0.0, 0.0, 0.0, 0.0, 0.0, 0.0, 0.0, 0.0, 0.0, 0.0, 0.0, 0.0, 0.0, 0.0, 0.0, 0.0, 0.0, 0.0, 0.0, 0.0, 0.0, 0.0, 0.0, 0.0, 0.0, 0.0, 0.0, 0.0, 0.0, 0.0, 0.0, 0.0, 0.0, 0.0, 0.0, 0.0, 0.0, 0.0, 0.0, 0.0, 0.0, 0.0, 0.0, 0.0, 0.0, 0.0, 0.0, 0.0, 0.0, 0.0, 0.0, 0.0, 0.0, 0.0, 0.0, 0.0, 0.0, 0.0, 0.0, 0.0, 0.0, 0.0, 0.0, 0.0, 0.0, 0.0, 0.0, 0.0, 0.0, 0.0, 0.0, 0.0, 0.0, 0.0, 0.0, 0.0, 0.0, 0.0, 0.0, 0.0, 0.0, 0.0, 0.0, 0.0, 0.0, 0.0, 0.0, 0.0, 0.0, 0.0, 0.0, 0.0, 0.0, 0.0, 0.0, 0.0, 0.0, 0.0, 0.0, 0.0, 0.0, 0.0, 0.0, 0.0, 0.0, 0.0, 0.0, 0.0, 0.0, 0.0, 0.0, 0.0, 0.0, 0.0, 0.0, 0.0, 0.0, 0.0, 0.0, 0.0, 0.0, 0.0, 0.0, 0.0, 0.0, 0.0, 0.0, 0.0, 0.0, 0.0, 0.0, 0.0, 0.0, 0.0, 0.0, 0.0, 0.0, 0.0, 0.0, 0.0, 0.0, 0.0, 0.0, 0.0, 0.0, 0.0, 0.0, 0.0, 0.0, 0.0, 0.0, 0.0, 0.0, 0.0, 0.0, 0.0, 0.0, 0.0, 0.0, 0.0, 0.0, 0.0, 0.0, 0.0, 0.0, 0.0, 0.0, 0.0, 0.0, 0.0, 0.0, 0.0, 0.0, 0.0, 0.0, 0.0, 0.0, 0.0, 0.0, 0.0, 0.0, 0.0, 0.0, 0.0, 0.0, 0.0, 0.0, 0.0, 0.0, 0.0, 0.0, 0.0, 0.0, 0.0, 0.0, 0.0, 0.0, 0.0, 0.0, 0.0, 0.0, 0.0, 0.0, 0.0, 0.0, 0.0, 0.0, 0.0, 0.0, 0.0, 0.0, 0.0, 0.0, 0.0, 0.0, 0.0, 0.0, 0.0, 0.0, 0.0, 0.0, 0.0, 0.0, 0.0, 0.0, 0.0, 0.0, 0.0, 0.0, 0.0, 0.0, 0.0, 0.0, 0.0, 0.0, 0.0, 0.0, 0.0, 0.0, 0.0, 0.0, 0.0, 0.0, 0.0, 0.0, 0.0, 0.0, 0.0, 0.0, 0.0, 0.0, 0.0, 0.0, 0.0, 0.0, 0.0, 0.0, 0.0, 0.0, 0.0, 0.0, 0.0, 0.0, 0.0, 0.0, 0.0, 0.0, 0.0, 0.0, 0.0, 0.0, 0.0, 0.0, 0.0, 0.0, 0.0, 0.0, 0.0, 0.0, 0.0, 0.0, 0.0, 0.0, 0.0, 0.0, 0.0, 0.0, 0.0, 0.0, 0.0, 0.0, 0.0, 0.0, 0.0, 0.0, 0.0, 0.0, 0.0, 0.0, 0.0, 0.0, 0.0, 0.0, 0.0, 0.0, 0.0, 0.0, 0.0, 0.0, 0.0, 0.0, 0.0, 0.0]}